decompositions/zmienne_worki/g_100_90_10.td
s td 58 5 100
b 1 11 37 
b 2 72 
b 3 1 
b 4 6 57 
b 5 64 76 95 
b 6 73 86 
b 7 99 
b 8 78 
b 9 23 36 
b 10 31 
b 11 3 79 
b 12 65 
b 13 13 67 
b 14 94 
b 15 16 43 60 69 
b 16 70 
b 17 20 
b 18 92 
b 19 80 97 
b 20 75 
b 21 18 61 
b 22 40 
b 23 4 
b 24 21 
b 25 59 
b 26 55 87 
b 27 10 47 
b 28 84 
b 29 89 91 
b 30 25 35 
b 31 26 81 
b 32 28 48 68 
b 33 58 74 100 
b 34 15 
b 35 42 45 77 85 96 
b 36 5 
b 37 7 44 66 
b 38 93 
b 39 22 27 34 
b 40 62 
b 41 54 
b 42 51 
b 43 46 56 
b 44 17 
b 45 14 
b 46 9 12 
b 47 49 
b 48 71 83 
b 49 19 32 
b 50 39 
b 51 30 52 
b 52 33 
b 53 8 53 
b 54 50 88 
b 55 2 24 41 82 
b 56 90 98 
b 57 29 
b 58 38 63 
1 2
1 3
2 4
3 5
4 6
5 7
6 8
7 9
8 10
9 11
10 12
11 13
12 14
13 15
14 16
15 17
16 18
17 19
18 20
19 21
20 22
21 23
22 24
23 25
24 26
25 27
26 28
27 29
28 30
29 31
30 32
31 33
32 34
33 35
34 36
35 37
36 38
37 39
38 40
39 41
40 42
41 43
42 44
43 45
44 46
45 47
46 48
47 49
48 50
49 51
50 52
51 53
52 54
53 55
54 56
55 57
57 58
