graphs/pace/raport/zmienne_worki/g_100_90_10.gr
p tw 100 59
9 12
42 45
42 77
42 85
42 96
45 77
45 85
45 96
77 85
77 96
85 96
30 52
26 81
25 35
19 32
16 43
16 60
16 69
43 60
43 69
60 69
7 44
7 66
44 66
90 98
80 97
13 67
3 79
8 53
18 61
22 27
22 34
27 34
2 24
2 41
2 82
24 41
24 82
41 82
23 36
11 37
89 91
71 83
38 63
55 87
58 74
58 100
74 100
46 56
73 86
28 48
28 68
48 68
50 88
6 57
64 76
64 95
76 95
10 47
